SCIP Status        : solving was interrupted [time limit reached]
Total Time         :    3600.00
  solving          :    3600.00
  presolving       :       0.37 (included in solving)
  reading          :       0.00
  copying          :       1.13 (27 #copies) (minimal 0.00, maximal 0.07, average 0.04)
Original Problem   :
  Problem name     : bbbenchmark/g05_80.0.cut
  Variables        : 81 (80 binary, 0 integer, 0 implicit integer, 1 continuous)
  Constraints      : 1 initial, 1 maximal
  Objective        : minimize, 1 non-zeros (abs.min = 1, abs.max = 1)
Presolved Problem  :
  Problem name     : t_bbbenchmark/g05_80.0.cut
  Variables        : 1609 (80 binary, 0 integer, 1527 implicit integer, 2 continuous)
  Constraints      : 1531 initial, 6226 maximal
  Objective        : minimize, 1 non-zeros (abs.min = 1, abs.max = 1)
  Nonzeros         : 6301 constraint, 162 clique table
Presolvers         :   ExecTime  SetupTime  Calls  FixedVars   AggrVars   ChgTypes  ChgBounds   AddHoles    DelCons    AddCons   ChgSides   ChgCoefs
  boundshift       :       0.00       0.00      0          0          0          0          0          0          0          0          0          0
  convertinttobin  :       0.00       0.00      0          0          0          0          0          0          0          0          0          0
  domcol           :       0.00       0.00      1          0          0          0          0          0          0          0          0          0
  dualagg          :       0.00       0.00      0          0          0          0          0          0          0          0          0          0
  dualcomp         :       0.00       0.00      1          0          0          0          0          0          0          0          0          0
  dualinfer        :       0.00       0.00      0          0          0          0          0          0          0          0          0          0
  dualsparsify     :       0.00       0.00      1          0          0          0          0          0          0          0          0          0
  gateextraction   :       0.00       0.00      0          0          0          0          0          0          0          0          0          0
  implics          :       0.00       0.00      2          0          0          0          0          0          0          0          0          0
  inttobinary      :       0.00       0.00      0          0          0          0          0          0          0          0          0          0
  qpkktref         :       0.00       0.00      0          0          0          0          0          0          0          0          0          0
  redvub           :       0.00       0.00      0          0          0          0          0          0          0          0          0          0
  sparsify         :       0.00       0.00      1          0          0          0          0          0          0          0          0          0
  stuffing         :       0.00       0.00      0          0          0          0          0          0          0          0          0          0
  trivial          :       0.00       0.00      4          0          0          0          0          0          0          0          0          0
  tworowbnd        :       0.00       0.00      0          0          0          0          0          0          0          0          0          0
  dualfix          :       0.00       0.00      4          0          0          0          0          0          0          0          0          0
  genvbounds       :       0.00       0.00      0          0          0          0          0          0          0          0          0          0
  probing          :       0.25       0.00      1          0          0          0          0          0          0          0          0          0
  pseudoobj        :       0.00       0.00      1          0          0          0          1          0          0          0          0          0
  symmetry         :       0.00       0.00      0          0          0          0          0          0          0          0          0          0
  vbounds          :       0.00       0.00      1          0          0          0          0          0          0          0          0          0
  varbound         :       0.00       0.00      2          0          0          0          0          0          0          0          0          0
  and              :       0.00       0.01      2          0          0          0          0          0          0          0          0          0
  linear           :       0.00       0.00      2          0          0          0          0          0          0          0          0          0
  logicor          :       0.00       0.00      0          0          0          0          0          0          0          0          0          0
  bounddisjunction :       0.00       0.00      0          0          0          0          0          0          0          0          0          0
  nonlinear        :       0.12       0.00      5          0          0          0          1          0          0       1530          0          0
  benders          :       0.00       0.00      0          0          0          0          0          0          0          0          0          0
  components       :       0.00       0.00      1          0          0          0          0          0          0          0          0          0
  root node        :          -          -      -          0          -          -         26          -          -          -          -          -
Constraints        :     Number  MaxNumber  #Separate #Propagate    #EnfoLP    #EnfoRelax  #EnfoPS    #Check   #ResProp    Cutoffs    DomReds       Cuts    Applied      Conss   Children
  benderslp        :          0          0          0          0      49585          0          0       2118          0          0          0          0          0          0          0
  integral         :          0          0          0          0      49585          0          0       2118          0          0       2515          0          0       1045      97348
  varbound         :          1          1         86     139557          0          0          0         43          0          0        172          0          0          0          0
  and              :       1527       1527      63159     373903          5          0          0         43     158643          1    1586109      12191      11856          0          0
  linear           :          3+         4         86     373905          5          0          0         41        128          1      14822          0          0          0          0
  logicor          :          0+      4628          0     100659          0          0          0          0         56        343         17          0          0          0          0
  bounddisjunction :          0+       142          0      26533          0          0          0          0          0          7          0          0          0          0          0
  benders          :          0          0          0          0          5          0          0         38          0          0          0          0          0          0          0
  countsols        :          0          0          0          0          5          0          0         38          0          0          0          0          0          0          0
  components       :          0          0          0          0          0          0          0          0          0          0          0          0          0          0          0
Constraint Timings :  TotalTime  SetupTime   Separate  Propagate     EnfoLP     EnfoPS     EnfoRelax   Check    ResProp    SB-Prop
  benderslp        :       0.08       0.00       0.00       0.00       0.08       0.00       0.00       0.00       0.00       0.00
  integral         :      42.77       0.00       0.00       0.00      42.77       0.00       0.00       0.00       0.00       0.00
  varbound         :       0.05       0.00       0.00       0.05       0.00       0.00       0.00       0.00       0.00       0.00
  and              :      47.48       0.01      30.63      16.34       0.00       0.00       0.00       0.01       0.13       0.36
  linear           :       0.58       0.00       0.02       0.54       0.00       0.00       0.00       0.00       0.00       0.02
  logicor          :       4.69       0.00       0.00       4.66       0.00       0.00       0.00       0.00       0.01       0.02
  bounddisjunction :       0.16       0.00       0.00       0.16       0.00       0.00       0.00       0.00       0.00       0.00
  benders          :       0.00       0.00       0.00       0.00       0.00       0.00       0.00       0.00       0.00       0.00
  countsols        :       0.00       0.00       0.00       0.00       0.00       0.00       0.00       0.00       0.00       0.00
  components       :       0.12       0.00       0.00       0.11       0.00       0.00       0.00       0.00       0.00       0.01
Propagators        : #Propagate   #ResProp    Cutoffs    DomReds
  dualfix          :          4          0          0          0
  genvbounds       :          0          0          0          0
  nlobbt           :          0          0          0          0
  obbt             :          0          0          0          0
  probing          :          0          0          0          0
  pseudoobj        :     228518          0          0         26
  redcost          :     124213          0          0      45684
  rootredcost      :         19          0          0          0
  symmetry         :          0          0          0          0
  vbounds          :      42805          0          0          0
Propagator Timings :  TotalTime  SetupTime   Presolve  Propagate    ResProp    SB-Prop
  dualfix          :       0.00       0.00       0.00       0.00       0.00       0.00
  genvbounds       :       0.24       0.00       0.00       0.24       0.00       0.00
  nlobbt           :       0.00       0.00       0.00       0.00       0.00       0.00
  obbt             :       0.00       0.00       0.00       0.00       0.00       0.00
  probing          :       0.25       0.00       0.25       0.00       0.00       0.00
  pseudoobj        :       0.46       0.00       0.00       0.46       0.00       0.00
  redcost          :       5.91       0.00       0.00       5.91       0.00       0.00
  rootredcost      :       0.44       0.00       0.00       0.43       0.00       0.01
  symmetry         :       0.20       0.00       0.00       0.20       0.00       0.00
  vbounds          :       0.35       0.00       0.00       0.35       0.00       0.00
Conflict Analysis  :       Time      Calls    Success    DomReds  Conflicts   Literals    Reconvs ReconvLits   Dualrays   Nonzeros   LP Iters   (pool size: [10000,10000])
  propagation      :       0.00        351        300          -        346       46.9          0        0.0          -          -          -
  infeasible LP    :       0.00          0          0          -          0        0.0          0        0.0          3       97.0          0
  bound exceed. LP :      10.41       5110       3780          -      51987       72.1          1       47.0          0        0.0      26420
  strong branching :       0.00          0          0          -          0        0.0          0        0.0          -          -          0
  pseudo solution  :       0.00          0          0          -          0        0.0          0        0.0          -          -          -
  applied globally :       0.15          -          -          0      16001       77.9          -          -          3          -          -
  applied locally  :          -          -          -          0          0        0.0          -          -          0          -          -
Separators         :   ExecTime  SetupTime      Calls  RootCalls    Cutoffs    DomReds  FoundCuts ViaPoolAdd  DirectAdd    Applied ViaPoolApp  DirectApp      Conss
  cut pool         :       4.12          -      17905        113          -          -      33296     840768          -          -          -          -          -    (maximal pool size:       1947)
  aggregation      :     239.96       0.00       4441         86          0          0         40        207          0         63         63          0          0
  > cmir           :          -          -          -          -          -          -          -        207          0         63         63          0          -
  > flowcover      :          -          -          -          -          -          -          -          0          0          0          0          0          -
  > knapsackcover  :          -          -          -          -          -          -          -          0          0          0          0          0          -
  cgmip            :       0.00       0.00          0          0          0          0          0          0          0          0          0          0          0
  clique           :       0.00       0.00         86         86          0          0          0          0          0          0          0          0          0
  closecuts        :       0.00       0.00          0          0          0          0          0          0          0          0          0          0          0
  convexproj       :       0.00       0.00          0          0          0          0          0          0          0          0          0          0          0
  disjunctive      :       0.00       0.00          0          0          0          0          0          0          0          0          0          0          0
  eccuts           :       0.00       0.00          0          0          0          0          0          0          0          0          0          0          0
  gauge            :       0.00       0.00          0          0          0          0          0          0          0          0          0          0          0
  gomory           :       0.00       0.00          0          0          0          0          0          0          0          0          0          0          0
  > gomorymi       :          -          -          -          -          -          -          -          0          0          0          0          0          -
  > strongcg       :          -          -          -          -          -          -          -          0          0          0          0          0          -
  impliedbounds    :       0.12       0.00       4441         86          0          0          6          3          0          3          3          0          0
  interlattice     :       0.00       0.00          0          0          0          0          0          0          0          0          0          0          0
  interminor       :       0.00       0.00          0          0          0          0          0          0          0          0          0          0          0
  intersub         :       0.48       0.00         40         40          0          0         40          0         40         40          0         40          0
  intobj           :       0.00       0.00          0          0          0          0          0          0          0          0          0          0          0
  mcf              :       0.00       0.00          1          1          0          0          0          0          0          0          0          0          0
  minor            :       0.00       0.00          0          0          0          0          0          0          0          0          0          0          0
  mixing           :       0.04       0.00       4441         86          0          0          0          0          0          0          0          0          0
  oddcycle         :       0.00       0.00          0          0          0          0          0          0          0          0          0          0          0
  rapidlearning    :       0.00       0.00          0          0          0          0          0          0          0          0          0          0          0
  rlt              :       0.00       0.00         10         10          0          0          0          0          0          0          0          0          0
  zerohalf         :      39.82       0.00       3931         20          0          0      33250     840558          0     106527     106527          0          0
Cutselectors       :   ExecTime  SetupTime      Calls  RootCalls   Selected     Forced   Filtered  RootSelec   RootForc   RootFilt 
  hybrid           :       0.89       0.00      16965         84     118489          0     734510        234          0         44
Pricers            :   ExecTime  SetupTime      Calls       Vars
  problem variables:       0.00          -          0          0
Branching Rules    :   ExecTime  SetupTime   BranchLP  BranchExt   BranchPS    Cutoffs    DomReds       Cuts      Conss   Children
  allfullstrong    :       0.00       0.00          0          0          0          0          0          0          0          0
  cloud            :       0.00       0.00          0          0          0          0          0          0          0          0
  distribution     :       0.00       0.00          0          0          0          0          0          0          0          0
  fullstrong       :       0.00       0.00          0          0          0          0          0          0          0          0
  inference        :       0.00       0.00          0          0          0          0          0          0          0          0
  leastinf         :       0.00       0.00          0          0          0          0          0          0          0          0
  lookahead        :       0.00       0.00          0          0          0          0          0          0          0          0
  mostinf          :       0.00       0.00          0          0          0          0          0          0          0          0
  multaggr         :       0.00       0.00          0          0          0          0          0          0          0          0
  nodereopt        :       0.00       0.00          0          0          0          0          0          0          0          0
  pscost           :       0.00       0.00          0          0          0          0          0          0          0          0
  random           :       0.00       0.00          0          0          0          0          0          0          0          0
  relpscost        :      42.65       0.00      49580          0          0          0       2515          0       1046      97348
  vanillafullstrong:       0.00       0.00          0          0          0          0          0          0          0          0
Primal Heuristics  :   ExecTime  SetupTime      Calls      Found       Best
  LP solutions     :       0.00          -          -          5          5
  relax solutions  :       0.00          -          -          0          0
  pseudo solutions :       0.00          -          -          0          0
  strong branching :       0.02          -          -          0          0
  actconsdiving    :       0.00       0.00          0          0          0
  adaptivediving   :      11.99       0.00        112          1          1
  alns             :       2.95       0.00         20          5          5
  bound            :       0.00       0.00          0          0          0
  clique           :       0.01       0.00          1          0          0
  coefdiving       :       0.00       0.00          0          0          0
  completesol      :       0.00       0.00          0          0          0
  conflictdiving   :      23.82       0.00        285          0          0
  crossover        :       0.18       0.00          2          1          1
  dins             :       0.00       0.00          0          0          0
  distributiondivin:      41.87       0.00        284          0          0
  dps              :       0.00       0.00          0          0          0
  dualval          :       0.00       0.00          0          0          0
  farkasdiving     :       0.00       0.00          0          0          0
  feaspump         :       0.17       0.00          1          1          1
  fixandinfer      :       0.00       0.00          0          0          0
  fracdiving       :      29.21       0.00        284          0          0
  gins             :       0.04       0.00          0          0          0
  guideddiving     :      23.91       0.00        284          7          7
  indicator        :       0.05       0.00          0          0          0
  indicatordiving  :       0.00       0.00          0          0          0
  intdiving        :       0.00       0.00          0          0          0
  intshifting      :       0.32       0.00         34          0          0
  linesearchdiving :      23.80       0.00        284          0          0
  localbranching   :       0.00       0.00          0          0          0
  locks            :       0.01       0.00          1          0          0
  lpface           :       0.05       0.00          0          0          0
  mpec             :     392.68       0.00         11          0          0
  multistart       :       0.00       0.00          0          0          0
  mutation         :       0.00       0.00          0          0          0
  nlpdiving        :      12.68       0.00          9          0          0
  objpscostdiving  :      68.51       0.00        100         10          2
  octane           :       0.00       0.00          0          0          0
  ofins            :       0.04       0.00          0          0          0
  oneopt           :       0.06       0.00         28          0          0
  padm             :       0.00       0.00          0          0          0
  proximity        :       0.00       0.00          0          0          0
  pscostdiving     :      32.43       0.00        284          0          0
  randrounding     :       0.52       0.00       2077          0          0
  rens             :       0.00       0.00          0          0          0
  reoptsols        :       0.00       0.00          0          0          0
  repair           :       0.00       0.00          0          0          0
  rins             :       2.70       0.00          5          0          0
  rootsoldiving    :      28.61       0.00         38          0          0
  rounding         :       0.89       0.00       3569          0          0
  shiftandpropagate:       0.00       0.00          0          0          0
  shifting         :      44.30       0.00      11566          8          8
  simplerounding   :       0.12       0.00          0          0          0
  subnlp           :      84.18       0.00          0          0          0
  trivial          :       0.00       0.00          2          2          2
  trivialnegation  :       0.00       0.00          0          0          0
  trustregion      :       0.00       0.00          0          0          0
  trysol           :       0.09       0.00          0          0          0
  twoopt           :       0.00       0.00          0          0          0
  undercover       :       2.16       0.00          1          0          0
  vbounds          :       0.00       0.00          0          0          0
  veclendiving     :      24.72       0.00        284          0          0
  zeroobj          :       0.00       0.00          0          0          0
  zirounding       :       0.50       0.00       1000          0          0
  other solutions  :          -          -          -          0          -
Diving (single)    :      Calls      Nodes   LP Iters Backtracks  Conflicts   MinDepth   MaxDepth   AvgDepth  RoundSols  NLeafSols  MinSolDpt  MaxSolDpt  AvgSolDpt
  actconsdiving    :          0          -          -          -          -          -          -          -          -          -          -          -          -
  coefdiving       :          0          -          -          -          -          -          -          -          -          -          -          -          -
  conflictdiving   :        285       9834     222899        313       9600         37         66       51.6          0          -          -          -          -
  distributiondivin:        284       7252     314227        315       3775         35         52       41.5          0          -          -          -          -
  farkasdiving     :          0          -          -          -          -          -          -          -          -          -          -          -          -
  fracdiving       :        284      34624     271576        272       2930         35        465      138.4          0          -          -          -          -
  guideddiving     :        284      27764     231747        151       3458         45        444      115.0          0          7         66         93       76.7
  indicatordiving  :          0          -          -          -          -          -          -          -          -          -          -          -          -
  linesearchdiving :        284       9055     234690        325       7566         33         72       48.0          0          -          -          -          -
  pscostdiving     :        284       8701     312027        302       7041         38         61       47.0          0          -          -          -          -
  veclendiving     :        284       9744     233981        337      11271         38         64       50.7          0          -          -          -          -
Diving (adaptive)  :      Calls      Nodes   LP Iters Backtracks  Conflicts   MinDepth   MaxDepth   AvgDepth  RoundSols  NLeafSols  MinSolDpt  MaxSolDpt  AvgSolDpt
  actconsdiving    :         14        379      13367         12        165         38         46       42.4          0          1         42         42       42.0
  coefdiving       :         31        930      30125         33       1015         37         64       45.5          0          -          -          -          -
  conflictdiving   :          0          -          -          -          -          -          -          -          -          -          -          -          -
  distributiondivin:          0          -          -          -          -          -          -          -          -          -          -          -          -
  farkasdiving     :          0          -          -          -          -          -          -          -          -          -          -          -          -
  fracdiving       :          9       1230      10251         19        121         57        272      151.8          0          -          -          -          -
  guideddiving     :         16       1792      12288          5         55         64        231      128.9          0          -          -          -          -
  indicatordiving  :          0          -          -          -          -          -          -          -          -          -          -          -          -
  linesearchdiving :          6        236       5906          7        171         35         72       54.8          0          -          -          -          -
  pscostdiving     :         13        393      15067         14        282         42         51       46.2          0          -          -          -          -
  veclendiving     :         23        846      17931         27       1027         41         58       52.4          0          -          -          -          -
Neighborhoods      :      Calls  SetupTime  SolveTime SolveNodes       Sols       Best       Exp3  EpsGreedy        UCB TgtFixRate  Opt  Inf Node Stal  Sol  Usr Othr Actv
  rens             :          3       0.24       0.02          1          0          0    0.00000   -1.00000    0.53896      0.437    0    3    0    0    0    0    0    1
  rins             :          1       0.01       0.05        107          0          0    0.00000   -1.00000    0.35579      0.900    0    0    0    1    0    0    0    1
  mutation         :          3       0.24       0.16         67          0          0    0.00000   -1.00000    0.45187      0.662    0    2    0    1    0    0    0    1
  localbranching   :          4       0.23       0.84        526          5          5    0.00000   -1.00000    0.47345      0.578    1    1    0    1    1    0    0    1
  crossover        :          3       0.20       0.22         66          0          0    0.00000   -1.00000    0.46286      0.662    0    2    0    1    0    0    0    1
  proximity        :          2       0.14       0.08         72          0          0    0.00000   -1.00000    0.44838      0.850    0    1    0    1    0    0    0    1
  zeroobjective    :          3       0.16       0.21         74          0          0    0.00000   -1.00000    0.45039      0.662    0    2    0    1    0    0    0    1
  dins             :          1       0.00       0.00          0          0          0    0.00000   -1.00000    0.06979      0.900    0    0    0    0    0    0    1    1
  trustregion      :          0       0.00       0.00          0          0          0    0.00000   -1.00000    1.00000      0.900    0    0    0    0    0    0    0    0
Expressions        :   #IntEval  IntEvalTi   #RevProp  RevPropTi    DomReds    Cutoffs  #Estimate  EstimTime  Branching  #Simplify SimplifyTi Simplified
  pow              :          0       0.00          0       0.00          0          0          0       0.00          0          0       0.00          0
  prod             :       6320       0.00          0       0.00          0          0          0       0.00          0       4687       0.01          0
  sum              :          8       0.00          2       0.00          0          0          0       0.00          0          3       0.05          2
  var              :       5476       0.00          0       0.00          0          0          0       0.00          0      11145       0.02          0
  varidx           :          0       0.00          0       0.00          0          0          0       0.00          0          0       0.00          0
LP                 :       Time      Calls Iterations  Iter/call   Iter/sec  Time-0-It Calls-0-It    ItLimit
  primal LP        :     119.67       8254          0       0.00       0.00     119.63       8254
  dual LP          :    2151.12     109406    9672831      95.48    4496.65       3.69       8096
  lex dual LP      :       0.00          0          0       0.00          -
  barrier LP       :       0.00          0          0       0.00          -       0.00          0
  resolve instable :       0.00          0          0       0.00          -
  diving/probing LP:     269.46      11502    2450279     213.03    9093.29
  strong branching :      25.63       1960     220705     112.60    8611.20          -          -         53
    (at root node) :          -         19       5534     291.26          -
  conflict analysis:       4.29       2703      26420       9.77    6158.51
NLP relaxation     :
  solve time       :      12.68 (9 calls)
  convexity        :  nonconvex (4 linear rows, 0 convex ineq., 0 nonconvex ineq., 1527 nonlinear eq. or two-sided ineq.)
NLP Solvers        :  #Problems  ProblemTi    #Solves  SolveTime      #Iter  Time/Iter      #Okay #TimeLimit #IterLimit #LObjLimit #Interrupt  #NumError #EvalError  #OutOfMem #LicenseEr #OtherTerm   #GlobOpt    #LocOpt  #Feasible #LocInfeas #GlobInfea #Unbounded   #Unknown
  ipopt            :         12       3.66         41     405.59       2404       0.17         41          0          0          0          0          0          0          0          0          0          0          0          0         32          0          0          9
B&B Tree           :
  number of runs   :          1
  nodes            :      83442 (48674 internal, 34768 leaves)
  feasible leaves  :          5
  infeas. leaves   :          3
  objective leaves :      34759
  nodes (total)    :      83442 (48674 internal, 34768 leaves)
  nodes left       :      13903
  max depth        :         53
  max depth (total):         53
  backtracks       :      17301 (20.7%)
  early backtracks :          0 (0.0%)
  nodes exc. ref.  :          0 (0.0%)
  delayed cutoffs  :          0
  repropagations   :         22 (8 domain reductions, 0 cutoffs)
  avg switch length:       4.56
  switching time   :     134.13
Estim. Tree Size   :     166892
Estimation Tree    : 97349 nodes (83446 visited, 48674 internal, 34772 leaves, 13903 open), weight: 0.0000 completed 0.1006
Estimations        :      estim      value      trend resolution     smooth
  wbe              : 15772965937          -          -          -          -
  tree-profile     :         -1          -          -          -          -
  gap              :     532060    0.76640    0.00006         64     551145
  tree-weight      :     166892    0.00000    0.00000         64     166712
  leaf-frequency   :    1088726    0.41669    0.00001         64    1365062
  ssg              :    1360194    0.84108   -0.00008         64    1351576
  open-nodes       :     166892 13903.00000   12.76157         64     166712
Root Node          :
  First LP value   : -1.00000000000000e+00
  First LP Iters   :       1045 (13062.50 Iter/sec)
  First LP Time    :       0.08
  Final Dual Bound : -9.29054037573553e-01
  Final Root Iters :       3827
  Root LP Estimate : -4.79585247176797e-01
Solution           :
  Solutions found  :         40 (32 improvements)
  First Solution   : +1.00000000000000e+05   (in run 1, after 0 nodes, 0.06 seconds, depth 0, found by <trivial>)
  Gap First Sol.   :   infinite
  Gap Last Sol.    :      42.42 %
  Primal Bound     : -5.75949367088607e-01   (in run 1, after 10541 nodes, 808.05 seconds, depth 40, found by <alns>)
  Dual Bound       : -7.51503164556963e-01
  Gap              :      30.48 %
Integrals          :      Total       Avg%
  primal-dual      :  102185.11      28.38
  primal-ref       :          -          - (not evaluated)
  dual-ref         :          -          - (not evaluated)
